
(set-logic HORN)
(declare-datatypes ((Bool_235 0)) (((false_235) (true_235))))
(declare-fun diseqBool_108 (Bool_235 Bool_235) Bool)
(declare-fun isfalse_108 (Bool_235) Bool)
(declare-fun istrue_108 (Bool_235) Bool)
(assert (isfalse_108 false_235))
(assert (istrue_108 true_235))
(assert (diseqBool_108 false_235 true_235))
(assert (diseqBool_108 true_235 false_235))
(declare-fun and_235 (Bool_235 Bool_235 Bool_235) Bool)
(declare-fun or_240 (Bool_235 Bool_235 Bool_235) Bool)
(declare-fun hence_235 (Bool_235 Bool_235 Bool_235) Bool)
(declare-fun not_238 (Bool_235 Bool_235) Bool)
(assert (and_235 false_235 false_235 false_235))
(assert (and_235 false_235 true_235 false_235))
(assert (and_235 false_235 false_235 true_235))
(assert (and_235 true_235 true_235 true_235))
(assert (or_240 false_235 false_235 false_235))
(assert (or_240 true_235 true_235 false_235))
(assert (or_240 true_235 false_235 true_235))
(assert (or_240 true_235 true_235 true_235))
(assert (hence_235 true_235 false_235 false_235))
(assert (hence_235 false_235 true_235 false_235))
(assert (hence_235 true_235 false_235 true_235))
(assert (hence_235 true_235 true_235 true_235))
(assert (not_238 true_235 false_235))
(assert (not_238 false_235 true_235))
(declare-datatypes ((list_166 0)) (((nil_190) (cons_166 (head_332 Bool_235) (tail_332 list_166)))))
(declare-fun diseqlist_166 (list_166 list_166) Bool)
(declare-fun head_335 (Bool_235 list_166) Bool)
(declare-fun tail_335 (list_166 list_166) Bool)
(declare-fun isnil_190 (list_166) Bool)
(declare-fun iscons_166 (list_166) Bool)
(assert (forall ((x_44927 Bool_235) (x_44928 list_166))
	(head_335 x_44927 (cons_166 x_44927 x_44928))))
(assert (forall ((x_44927 Bool_235) (x_44928 list_166))
	(tail_335 x_44928 (cons_166 x_44927 x_44928))))
(assert (isnil_190 nil_190))
(assert (forall ((x_44930 Bool_235) (x_44931 list_166))
	(iscons_166 (cons_166 x_44930 x_44931))))
(assert (forall ((x_44932 Bool_235) (x_44933 list_166))
	(diseqlist_166 nil_190 (cons_166 x_44932 x_44933))))
(assert (forall ((x_44934 Bool_235) (x_44935 list_166))
	(diseqlist_166 (cons_166 x_44934 x_44935) nil_190)))
(assert (forall ((x_44936 Bool_235) (x_44937 list_166) (x_44938 Bool_235) (x_44939 list_166))
	(=> (diseqBool_108 x_44936 x_44938) (diseqlist_166 (cons_166 x_44936 x_44937) (cons_166 x_44938 x_44939)))))
(assert (forall ((x_44936 Bool_235) (x_44937 list_166) (x_44938 Bool_235) (x_44939 list_166))
	(=> (diseqlist_166 x_44937 x_44939) (diseqlist_166 (cons_166 x_44936 x_44937) (cons_166 x_44938 x_44939)))))
(declare-datatypes ((It_3 0)) (((A_47) (B_27) (C_15))))
(declare-fun diseqIt_3 (It_3 It_3) Bool)
(declare-fun isA_5 (It_3) Bool)
(declare-fun isB_5 (It_3) Bool)
(declare-fun isC_5 (It_3) Bool)
(assert (isA_5 A_47))
(assert (isB_5 B_27))
(assert (isC_5 C_15))
(assert (diseqIt_3 A_47 B_27))
(assert (diseqIt_3 A_47 C_15))
(assert (diseqIt_3 B_27 A_47))
(assert (diseqIt_3 C_15 A_47))
(assert (diseqIt_3 B_27 C_15))
(assert (diseqIt_3 C_15 B_27))
(declare-datatypes ((list_167 0)) (((nil_191) (cons_167 (head_333 It_3) (tail_333 list_167)))))
(declare-fun diseqlist_167 (list_167 list_167) Bool)
(declare-fun head_336 (It_3 list_167) Bool)
(declare-fun tail_336 (list_167 list_167) Bool)
(declare-fun isnil_191 (list_167) Bool)
(declare-fun iscons_167 (list_167) Bool)
(assert (forall ((x_44944 It_3) (x_44945 list_167))
	(head_336 x_44944 (cons_167 x_44944 x_44945))))
(assert (forall ((x_44944 It_3) (x_44945 list_167))
	(tail_336 x_44945 (cons_167 x_44944 x_44945))))
(assert (isnil_191 nil_191))
(assert (forall ((x_44947 It_3) (x_44948 list_167))
	(iscons_167 (cons_167 x_44947 x_44948))))
(assert (forall ((x_44949 It_3) (x_44950 list_167))
	(diseqlist_167 nil_191 (cons_167 x_44949 x_44950))))
(assert (forall ((x_44951 It_3) (x_44952 list_167))
	(diseqlist_167 (cons_167 x_44951 x_44952) nil_191)))
(assert (forall ((x_44953 It_3) (x_44954 list_167) (x_44955 It_3) (x_44956 list_167))
	(=> (diseqIt_3 x_44953 x_44955) (diseqlist_167 (cons_167 x_44953 x_44954) (cons_167 x_44955 x_44956)))))
(assert (forall ((x_44953 It_3) (x_44954 list_167) (x_44955 It_3) (x_44956 list_167))
	(=> (diseqlist_167 x_44954 x_44956) (diseqlist_167 (cons_167 x_44953 x_44954) (cons_167 x_44955 x_44956)))))
(declare-datatypes ((list_168 0)) (((nil_192) (cons_168 (head_334 list_167) (tail_334 list_168)))))
(declare-fun diseqlist_168 (list_168 list_168) Bool)
(declare-fun head_337 (list_167 list_168) Bool)
(declare-fun tail_337 (list_168 list_168) Bool)
(declare-fun isnil_192 (list_168) Bool)
(declare-fun iscons_168 (list_168) Bool)
(assert (forall ((x_44958 list_167) (x_44959 list_168))
	(head_337 x_44958 (cons_168 x_44958 x_44959))))
(assert (forall ((x_44958 list_167) (x_44959 list_168))
	(tail_337 x_44959 (cons_168 x_44958 x_44959))))
(assert (isnil_192 nil_192))
(assert (forall ((x_44961 list_167) (x_44962 list_168))
	(iscons_168 (cons_168 x_44961 x_44962))))
(assert (forall ((x_44963 list_167) (x_44964 list_168))
	(diseqlist_168 nil_192 (cons_168 x_44963 x_44964))))
(assert (forall ((x_44965 list_167) (x_44966 list_168))
	(diseqlist_168 (cons_168 x_44965 x_44966) nil_192)))
(assert (forall ((x_44967 list_167) (x_44968 list_168) (x_44969 list_167) (x_44970 list_168))
	(=> (diseqlist_167 x_44967 x_44969) (diseqlist_168 (cons_168 x_44967 x_44968) (cons_168 x_44969 x_44970)))))
(assert (forall ((x_44967 list_167) (x_44968 list_168) (x_44969 list_167) (x_44970 list_168))
	(=> (diseqlist_168 x_44968 x_44970) (diseqlist_168 (cons_168 x_44967 x_44968) (cons_168 x_44969 x_44970)))))
(declare-fun removeOne_0 (list_168 It_3 list_168) Bool)
(assert (forall ((x_44891 list_168) (z_1397 list_167) (x_44875 list_168) (x_44874 It_3))
	(=> (removeOne_0 x_44891 x_44874 x_44875) (removeOne_0 (cons_168 (cons_167 x_44874 z_1397) x_44891) x_44874 (cons_168 z_1397 x_44875)))))
(assert (forall ((x_44874 It_3))
	(removeOne_0 nil_192 x_44874 nil_192)))
(declare-fun removeOne_1 (list_168 list_167) Bool)
(assert (forall ((x_44894 list_168) (x_44895 list_168) (y_1544 It_3) (xs_456 list_167))
	(=> (and (removeOne_1 x_44894 xs_456) (removeOne_0 x_44895 y_1544 x_44894)) (removeOne_1 (cons_168 xs_456 x_44895) (cons_167 y_1544 xs_456)))))
(assert (removeOne_1 nil_192 nil_191))
(declare-fun or_239 (Bool_235 list_166) Bool)
(assert (forall ((x_44897 Bool_235) (x_44898 Bool_235) (y_1545 Bool_235) (xs_457 list_166))
	(=> (and (or_239 x_44898 xs_457) (or_240 x_44897 y_1545 x_44898)) (or_239 x_44897 (cons_166 y_1545 xs_457)))))
(assert (or_239 false_235 nil_190))
(declare-fun isPrefix_3 (Bool_235 list_167 list_167) Bool)
(assert (forall ((x_44900 Bool_235) (x_44880 It_3) (x_44881 list_167) (x_44879 list_167))
	(=> (isPrefix_3 x_44900 x_44879 x_44881) (isPrefix_3 x_44900 (cons_167 x_44880 x_44879) (cons_167 x_44880 x_44881)))))
(assert (forall ((x_44880 It_3) (x_44881 list_167) (z_1398 It_3) (x_44879 list_167))
	(=> (diseqIt_3 z_1398 x_44880) (isPrefix_3 false_235 (cons_167 z_1398 x_44879) (cons_167 x_44880 x_44881)))))
(assert (forall ((z_1398 It_3) (x_44879 list_167))
	(isPrefix_3 false_235 (cons_167 z_1398 x_44879) nil_191)))
(assert (forall ((y_1546 list_167))
	(isPrefix_3 true_235 nil_191 y_1546)))
(declare-fun isRelaxedPrefix_3 (Bool_235 list_167 list_167) Bool)
(assert (forall ((x_44905 Bool_235) (x_44886 It_3) (x_44887 list_167) (x_44884 It_3) (x_44885 list_167))
	(=> (isRelaxedPrefix_3 x_44905 (cons_167 x_44884 x_44885) x_44887) (isRelaxedPrefix_3 x_44905 (cons_167 x_44886 (cons_167 x_44884 x_44885)) (cons_167 x_44886 x_44887)))))
(assert (forall ((x_44907 Bool_235) (x_44886 It_3) (x_44887 list_167) (x_44884 It_3) (x_44885 list_167) (z_1399 It_3))
	(=> (and (diseqIt_3 z_1399 x_44886) (isPrefix_3 x_44907 (cons_167 x_44884 x_44885) (cons_167 x_44886 x_44887))) (isRelaxedPrefix_3 x_44907 (cons_167 z_1399 (cons_167 x_44884 x_44885)) (cons_167 x_44886 x_44887)))))
(assert (forall ((x_44884 It_3) (x_44885 list_167) (z_1399 It_3))
	(isRelaxedPrefix_3 false_235 (cons_167 z_1399 (cons_167 x_44884 x_44885)) nil_191)))
(assert (forall ((z_1399 It_3) (y_1547 list_167))
	(isRelaxedPrefix_3 true_235 (cons_167 z_1399 nil_191) y_1547)))
(assert (forall ((y_1547 list_167))
	(isRelaxedPrefix_3 true_235 nil_191 y_1547)))
(declare-fun spec_0 (list_166 list_167 list_168) Bool)
(assert (forall ((x_44913 Bool_235) (x_44914 list_166) (y_1548 list_167) (z_1400 list_168) (ys_142 list_167))
	(=> (and (isPrefix_3 x_44913 y_1548 ys_142) (spec_0 x_44914 ys_142 z_1400)) (spec_0 (cons_166 x_44913 x_44914) ys_142 (cons_168 y_1548 z_1400)))))
(assert (forall ((ys_142 list_167))
	(spec_0 nil_190 ys_142 nil_192)))
(declare-fun spec_1 (Bool_235 list_167 list_167) Bool)
(assert (forall ((x_44916 Bool_235) (x_44917 list_168) (x_44918 list_166) (x_44889 list_167) (y_1549 list_167))
	(=> (and (removeOne_1 x_44917 x_44889) (spec_0 x_44918 y_1549 (cons_168 x_44889 x_44917)) (or_239 x_44916 x_44918)) (spec_1 x_44916 x_44889 y_1549))))
(assert (forall ((x_44920 Bool_235) (x_44921 Bool_235) (xs_458 list_167) (ys_143 list_167))
	(=> (and true (diseqBool_108 x_44920 x_44921) (isRelaxedPrefix_3 x_44920 xs_458 ys_143) (spec_1 x_44921 xs_458 ys_143)) false)))
(check-sat)
